c File: data_files/evolved_graphs/g3841.col
c
c Auto generated graph
c
p edge 100 2132
e 1 2
e 1 4
e 1 5
e 1 6
e 1 7
e 1 8
e 1 9
e 1 10
e 1 12
e 1 13
e 1 14
e 1 15
e 1 16
e 1 18
e 1 19
e 1 20
e 1 21
e 1 22
e 1 23
e 1 24
e 1 27
e 1 32
e 1 33
e 1 34
e 1 35
e 1 37
e 1 39
e 1 41
e 1 42
e 1 43
e 1 44
e 1 45
e 1 47
e 1 48
e 1 49
e 1 51
e 1 53
e 1 54
e 1 56
e 1 62
e 1 63
e 1 64
e 1 69
e 1 70
e 1 72
e 1 74
e 1 76
e 1 77
e 1 78
e 1 80
e 1 82
e 1 83
e 1 88
e 2 3
e 2 4
e 2 6
e 2 7
e 2 10
e 2 12
e 2 14
e 2 17
e 2 23
e 2 25
e 2 27
e 2 28
e 2 29
e 2 31
e 2 34
e 2 36
e 2 38
e 2 39
e 2 41
e 2 44
e 2 48
e 2 49
e 2 50
e 2 52
e 2 53
e 2 54
e 2 59
e 2 60
e 2 61
e 2 62
e 2 64
e 2 65
e 2 66
e 2 72
e 2 74
e 2 75
e 2 76
e 2 80
e 2 81
e 2 82
e 2 84
e 2 85
e 2 86
e 2 88
e 3 4
e 3 6
e 3 7
e 3 10
e 3 12
e 3 14
e 3 18
e 3 19
e 3 20
e 3 22
e 3 24
e 3 25
e 3 26
e 3 27
e 3 28
e 3 31
e 3 32
e 3 34
e 3 38
e 3 40
e 3 41
e 3 42
e 3 43
e 3 47
e 3 48
e 3 49
e 3 50
e 3 53
e 3 57
e 3 58
e 3 59
e 3 60
e 3 61
e 3 63
e 3 64
e 3 67
e 3 68
e 3 69
e 3 70
e 3 73
e 3 75
e 3 77
e 3 79
e 3 80
e 3 83
e 3 84
e 3 86
e 3 87
e 3 88
e 4 5
e 4 6
e 4 7
e 4 8
e 4 9
e 4 10
e 4 11
e 4 12
e 4 14
e 4 16
e 4 18
e 4 20
e 4 24
e 4 25
e 4 32
e 4 33
e 4 34
e 4 36
e 4 37
e 4 40
e 4 46
e 4 47
e 4 48
e 4 50
e 4 52
e 4 55
e 4 56
e 4 57
e 4 59
e 4 61
e 4 62
e 4 63
e 4 66
e 4 71
e 4 73
e 4 74
e 4 76
e 4 78
e 4 79
e 4 82
e 4 84
e 4 85
e 4 86
e 4 88
e 4 92
e 5 6
e 5 7
e 5 8
e 5 9
e 5 10
e 5 11
e 5 12
e 5 15
e 5 17
e 5 18
e 5 21
e 5 22
e 5 23
e 5 26
e 5 30
e 5 31
e 5 32
e 5 33
e 5 34
e 5 35
e 5 38
e 5 42
e 5 46
e 5 48
e 5 49
e 5 50
e 5 53
e 5 54
e 5 55
e 5 56
e 5 57
e 5 59
e 5 62
e 5 63
e 5 64
e 5 66
e 5 67
e 5 68
e 5 71
e 5 72
e 5 73
e 5 74
e 5 75
e 5 79
e 5 81
e 5 85
e 5 87
e 5 88
e 6 8
e 6 9
e 6 10
e 6 12
e 6 14
e 6 17
e 6 22
e 6 23
e 6 26
e 6 27
e 6 28
e 6 30
e 6 31
e 6 33
e 6 34
e 6 35
e 6 36
e 6 37
e 6 38
e 6 40
e 6 41
e 6 42
e 6 43
e 6 44
e 6 45
e 6 47
e 6 49
e 6 50
e 6 51
e 6 56
e 6 58
e 6 60
e 6 61
e 6 64
e 6 66
e 6 69
e 6 71
e 6 72
e 6 73
e 6 75
e 6 76
e 6 78
e 6 79
e 6 80
e 6 81
e 6 82
e 6 84
e 6 85
e 6 86
e 6 87
e 6 91
e 6 92
e 7 8
e 7 12
e 7 13
e 7 14
e 7 15
e 7 17
e 7 18
e 7 19
e 7 20
e 7 22
e 7 24
e 7 26
e 7 28
e 7 29
e 7 31
e 7 34
e 7 37
e 7 39
e 7 40
e 7 42
e 7 44
e 7 45
e 7 46
e 7 48
e 7 49
e 7 51
e 7 52
e 7 53
e 7 54
e 7 55
e 7 59
e 7 60
e 7 62
e 7 65
e 7 66
e 7 67
e 7 68
e 7 69
e 7 70
e 7 75
e 7 76
e 7 77
e 7 78
e 7 80
e 7 81
e 7 83
e 7 84
e 7 85
e 7 86
e 8 9
e 8 10
e 8 11
e 8 12
e 8 13
e 8 16
e 8 20
e 8 21
e 8 24
e 8 26
e 8 27
e 8 29
e 8 33
e 8 37
e 8 38
e 8 39
e 8 40
e 8 49
e 8 50
e 8 51
e 8 52
e 8 54
e 8 55
e 8 56
e 8 59
e 8 61
e 8 68
e 8 70
e 8 72
e 8 73
e 8 74
e 8 78
e 8 79
e 8 81
e 8 82
e 8 85
e 8 88
e 9 12
e 9 13
e 9 16
e 9 19
e 9 20
e 9 21
e 9 22
e 9 25
e 9 27
e 9 28
e 9 29
e 9 30
e 9 33
e 9 34
e 9 37
e 9 42
e 9 43
e 9 44
e 9 45
e 9 46
e 9 47
e 9 48
e 9 49
e 9 50
e 9 52
e 9 53
e 9 54
e 9 55
e 9 57
e 9 60
e 9 61
e 9 62
e 9 65
e 9 68
e 9 69
e 9 70
e 9 71
e 9 73
e 9 74
e 9 75
e 9 78
e 9 79
e 9 81
e 9 82
e 9 86
e 9 87
e 9 100
e 10 12
e 10 13
e 10 15
e 10 21
e 10 25
e 10 29
e 10 30
e 10 35
e 10 36
e 10 37
e 10 40
e 10 45
e 10 47
e 10 48
e 10 49
e 10 51
e 10 52
e 10 54
e 10 55
e 10 57
e 10 64
e 10 65
e 10 66
e 10 67
e 10 68
e 10 69
e 10 70
e 10 71
e 10 72
e 10 73
e 10 74
e 10 76
e 10 78
e 10 80
e 10 81
e 10 83
e 10 84
e 10 86
e 10 87
e 10 88
e 11 13
e 11 15
e 11 16
e 11 18
e 11 21
e 11 24
e 11 25
e 11 29
e 11 31
e 11 34
e 11 36
e 11 39
e 11 40
e 11 41
e 11 44
e 11 45
e 11 46
e 11 48
e 11 49
e 11 50
e 11 52
e 11 53
e 11 56
e 11 57
e 11 60
e 11 62
e 11 63
e 11 66
e 11 67
e 11 69
e 11 70
e 11 71
e 11 72
e 11 74
e 11 76
e 11 79
e 11 81
e 11 83
e 11 84
e 11 86
e 11 88
e 12 13
e 12 14
e 12 15
e 12 21
e 12 22
e 12 24
e 12 25
e 12 26
e 12 29
e 12 32
e 12 33
e 12 34
e 12 36
e 12 37
e 12 39
e 12 41
e 12 43
e 12 44
e 12 45
e 12 47
e 12 48
e 12 51
e 12 52
e 12 53
e 12 54
e 12 59
e 12 60
e 12 61
e 12 62
e 12 63
e 12 66
e 12 69
e 12 70
e 12 71
e 12 74
e 12 78
e 12 79
e 12 80
e 12 83
e 12 84
e 12 88
e 13 14
e 13 16
e 13 19
e 13 21
e 13 22
e 13 23
e 13 24
e 13 25
e 13 27
e 13 29
e 13 31
e 13 35
e 13 40
e 13 41
e 13 42
e 13 43
e 13 45
e 13 46
e 13 48
e 13 49
e 13 50
e 13 51
e 13 52
e 13 54
e 13 55
e 13 57
e 13 58
e 13 59
e 13 60
e 13 61
e 13 62
e 13 64
e 13 65
e 13 68
e 13 69
e 13 71
e 13 72
e 13 74
e 13 75
e 13 76
e 13 77
e 13 78
e 13 82
e 13 83
e 13 86
e 13 87
e 13 88
e 14 15
e 14 17
e 14 22
e 14 24
e 14 25
e 14 27
e 14 31
e 14 32
e 14 33
e 14 36
e 14 38
e 14 39
e 14 40
e 14 41
e 14 42
e 14 44
e 14 45
e 14 47
e 14 49
e 14 51
e 14 52
e 14 54
e 14 57
e 14 58
e 14 59
e 14 61
e 14 62
e 14 65
e 14 68
e 14 69
e 14 71
e 14 75
e 14 76
e 14 77
e 14 78
e 14 79
e 14 80
e 14 82
e 14 87
e 14 88
e 15 17
e 15 18
e 15 19
e 15 20
e 15 21
e 15 23
e 15 27
e 15 28
e 15 29
e 15 31
e 15 32
e 15 33
e 15 34
e 15 35
e 15 36
e 15 38
e 15 40
e 15 41
e 15 42
e 15 43
e 15 47
e 15 48
e 15 49
e 15 51
e 15 52
e 15 53
e 15 54
e 15 56
e 15 57
e 15 59
e 15 62
e 15 64
e 15 66
e 15 67
e 15 70
e 15 71
e 15 73
e 15 75
e 15 76
e 15 77
e 15 81
e 16 17
e 16 18
e 16 19
e 16 20
e 16 22
e 16 24
e 16 26
e 16 27
e 16 28
e 16 29
e 16 30
e 16 31
e 16 34
e 16 37
e 16 39
e 16 41
e 16 42
e 16 44
e 16 45
e 16 47
e 16 48
e 16 49
e 16 51
e 16 55
e 16 59
e 16 60
e 16 61
e 16 63
e 16 64
e 16 66
e 16 67
e 16 68
e 16 69
e 16 71
e 16 75
e 16 76
e 16 78
e 16 82
e 16 85
e 16 86
e 16 87
e 16 88
e 17 18
e 17 21
e 17 26
e 17 28
e 17 29
e 17 32
e 17 38
e 17 39
e 17 41
e 17 42
e 17 44
e 17 46
e 17 47
e 17 48
e 17 50
e 17 51
e 17 55
e 17 56
e 17 57
e 17 59
e 17 60
e 17 61
e 17 65
e 17 66
e 17 68
e 17 72
e 17 74
e 17 76
e 17 77
e 17 78
e 17 79
e 17 84
e 17 86
e 17 87
e 18 19
e 18 21
e 18 22
e 18 23
e 18 24
e 18 25
e 18 27
e 18 30
e 18 31
e 18 32
e 18 37
e 18 39
e 18 40
e 18 41
e 18 43
e 18 45
e 18 47
e 18 49
e 18 50
e 18 51
e 18 52
e 18 56
e 18 60
e 18 61
e 18 62
e 18 65
e 18 69
e 18 70
e 18 72
e 18 73
e 18 74
e 18 75
e 18 78
e 18 80
e 18 81
e 18 82
e 18 85
e 18 87
e 18 88
e 19 21
e 19 22
e 19 23
e 19 28
e 19 38
e 19 39
e 19 40
e 19 42
e 19 43
e 19 44
e 19 45
e 19 46
e 19 52
e 19 55
e 19 56
e 19 57
e 19 58
e 19 59
e 19 62
e 19 65
e 19 66
e 19 67
e 19 68
e 19 69
e 19 70
e 19 72
e 19 73
e 19 75
e 19 83
e 19 84
e 19 85
e 19 86
e 19 88
e 19 94
e 20 22
e 20 24
e 20 25
e 20 27
e 20 28
e 20 29
e 20 32
e 20 38
e 20 40
e 20 41
e 20 42
e 20 43
e 20 46
e 20 49
e 20 50
e 20 52
e 20 55
e 20 56
e 20 59
e 20 60
e 20 62
e 20 66
e 20 67
e 20 70
e 20 71
e 20 72
e 20 73
e 20 76
e 20 81
e 20 87
e 21 23
e 21 24
e 21 28
e 21 33
e 21 35
e 21 36
e 21 37
e 21 41
e 21 43
e 21 47
e 21 48
e 21 49
e 21 52
e 21 53
e 21 55
e 21 57
e 21 58
e 21 59
e 21 60
e 21 63
e 21 66
e 21 67
e 21 70
e 21 71
e 21 72
e 21 74
e 21 75
e 21 76
e 21 78
e 21 79
e 21 80
e 21 82
e 21 84
e 21 87
e 21 88
e 22 23
e 22 24
e 22 25
e 22 26
e 22 27
e 22 29
e 22 30
e 22 33
e 22 35
e 22 36
e 22 37
e 22 40
e 22 42
e 22 44
e 22 45
e 22 47
e 22 49
e 22 50
e 22 53
e 22 54
e 22 55
e 22 57
e 22 60
e 22 63
e 22 64
e 22 66
e 22 67
e 22 70
e 22 72
e 22 74
e 22 76
e 22 78
e 22 79
e 22 80
e 22 83
e 22 86
e 22 92
e 23 24
e 23 26
e 23 27
e 23 29
e 23 30
e 23 31
e 23 33
e 23 34
e 23 36
e 23 39
e 23 41
e 23 42
e 23 43
e 23 44
e 23 45
e 23 46
e 23 47
e 23 50
e 23 51
e 23 52
e 23 53
e 23 54
e 23 57
e 23 59
e 23 60
e 23 61
e 23 66
e 23 67
e 23 68
e 23 70
e 23 73
e 23 74
e 23 75
e 23 76
e 23 77
e 23 80
e 23 81
e 23 82
e 23 85
e 23 87
e 24 28
e 24 30
e 24 32
e 24 33
e 24 35
e 24 37
e 24 38
e 24 39
e 24 40
e 24 41
e 24 42
e 24 43
e 24 45
e 24 46
e 24 47
e 24 48
e 24 49
e 24 52
e 24 53
e 24 57
e 24 58
e 24 60
e 24 62
e 24 63
e 24 64
e 24 66
e 24 67
e 24 69
e 24 72
e 24 74
e 24 76
e 24 77
e 24 80
e 24 81
e 24 84
e 24 87
e 24 88
e 25 26
e 25 28
e 25 29
e 25 36
e 25 42
e 25 43
e 25 46
e 25 47
e 25 49
e 25 52
e 25 53
e 25 56
e 25 59
e 25 62
e 25 64
e 25 70
e 25 71
e 25 72
e 25 75
e 25 78
e 25 82
e 25 84
e 25 86
e 25 87
e 25 88
e 26 29
e 26 30
e 26 31
e 26 32
e 26 35
e 26 36
e 26 37
e 26 39
e 26 40
e 26 41
e 26 43
e 26 45
e 26 47
e 26 52
e 26 53
e 26 55
e 26 59
e 26 60
e 26 66
e 26 69
e 26 70
e 26 72
e 26 73
e 26 75
e 26 76
e 26 77
e 26 78
e 26 79
e 26 81
e 26 83
e 26 86
e 26 87
e 26 88
e 27 28
e 27 29
e 27 34
e 27 38
e 27 43
e 27 44
e 27 46
e 27 47
e 27 48
e 27 49
e 27 51
e 27 52
e 27 61
e 27 64
e 27 65
e 27 67
e 27 68
e 27 70
e 27 72
e 27 74
e 27 75
e 27 76
e 27 79
e 27 81
e 27 84
e 27 86
e 27 88
e 27 92
e 28 29
e 28 31
e 28 33
e 28 34
e 28 36
e 28 38
e 28 44
e 28 45
e 28 46
e 28 47
e 28 48
e 28 49
e 28 51
e 28 53
e 28 55
e 28 57
e 28 58
e 28 60
e 28 61
e 28 64
e 28 66
e 28 67
e 28 68
e 28 71
e 28 73
e 28 74
e 28 76
e 28 82
e 28 85
e 28 100
e 29 30
e 29 32
e 29 34
e 29 35
e 29 36
e 29 38
e 29 40
e 29 41
e 29 42
e 29 44
e 29 46
e 29 47
e 29 48
e 29 49
e 29 50
e 29 53
e 29 55
e 29 56
e 29 57
e 29 58
e 29 59
e 29 61
e 29 62
e 29 64
e 29 65
e 29 67
e 29 69
e 29 75
e 29 77
e 29 78
e 29 79
e 29 80
e 29 81
e 29 82
e 29 83
e 29 86
e 29 87
e 29 88
e 29 98
e 30 32
e 30 37
e 30 40
e 30 43
e 30 46
e 30 47
e 30 49
e 30 50
e 30 53
e 30 54
e 30 55
e 30 61
e 30 62
e 30 64
e 30 65
e 30 67
e 30 70
e 30 71
e 30 72
e 30 73
e 30 75
e 30 76
e 30 77
e 30 78
e 30 85
e 31 32
e 31 33
e 31 36
e 31 38
e 31 40
e 31 41
e 31 43
e 31 44
e 31 45
e 31 49
e 31 50
e 31 52
e 31 53
e 31 54
e 31 56
e 31 59
e 31 61
e 31 63
e 31 64
e 31 65
e 31 67
e 31 68
e 31 70
e 31 76
e 31 78
e 31 80
e 31 82
e 31 83
e 31 84
e 31 85
e 31 87
e 31 88
e 31 91
e 32 33
e 32 36
e 32 37
e 32 41
e 32 43
e 32 44
e 32 48
e 32 49
e 32 50
e 32 51
e 32 52
e 32 53
e 32 55
e 32 56
e 32 59
e 32 62
e 32 64
e 32 67
e 32 69
e 32 70
e 32 72
e 32 75
e 32 76
e 32 77
e 32 80
e 32 83
e 32 85
e 32 86
e 33 34
e 33 40
e 33 41
e 33 42
e 33 43
e 33 44
e 33 45
e 33 48
e 33 49
e 33 50
e 33 52
e 33 53
e 33 55
e 33 57
e 33 60
e 33 66
e 33 67
e 33 68
e 33 74
e 33 77
e 33 78
e 33 81
e 33 82
e 33 83
e 33 84
e 33 86
e 33 87
e 33 88
e 34 35
e 34 36
e 34 39
e 34 40
e 34 42
e 34 43
e 34 45
e 34 46
e 34 47
e 34 50
e 34 51
e 34 52
e 34 54
e 34 55
e 34 57
e 34 58
e 34 61
e 34 64
e 34 66
e 34 68
e 34 69
e 34 70
e 34 73
e 34 74
e 34 75
e 34 76
e 34 77
e 34 80
e 34 83
e 34 85
e 34 86
e 34 87
e 34 88
e 34 91
e 34 95
e 35 36
e 35 38
e 35 40
e 35 41
e 35 42
e 35 45
e 35 48
e 35 50
e 35 52
e 35 58
e 35 66
e 35 67
e 35 69
e 35 70
e 35 72
e 35 73
e 35 74
e 35 75
e 35 77
e 35 78
e 35 79
e 35 80
e 35 81
e 35 82
e 35 88
e 36 37
e 36 38
e 36 39
e 36 47
e 36 48
e 36 49
e 36 53
e 36 54
e 36 57
e 36 63
e 36 67
e 36 68
e 36 71
e 36 73
e 36 74
e 36 77
e 36 79
e 36 80
e 36 82
e 36 84
e 36 87
e 37 38
e 37 40
e 37 42
e 37 45
e 37 47
e 37 48
e 37 51
e 37 53
e 37 62
e 37 64
e 37 67
e 37 71
e 37 72
e 37 73
e 37 75
e 37 77
e 37 78
e 37 79
e 37 80
e 37 81
e 37 82
e 37 83
e 37 87
e 37 96
e 37 97
e 38 39
e 38 40
e 38 41
e 38 42
e 38 46
e 38 47
e 38 48
e 38 49
e 38 50
e 38 52
e 38 53
e 38 54
e 38 57
e 38 60
e 38 62
e 38 63
e 38 64
e 38 65
e 38 66
e 38 69
e 38 70
e 38 71
e 38 73
e 38 74
e 38 75
e 38 76
e 38 78
e 38 85
e 38 87
e 38 89
e 39 40
e 39 41
e 39 44
e 39 45
e 39 48
e 39 49
e 39 53
e 39 56
e 39 61
e 39 64
e 39 65
e 39 66
e 39 67
e 39 68
e 39 69
e 39 70
e 39 72
e 39 73
e 39 74
e 39 75
e 39 77
e 39 80
e 39 81
e 39 82
e 39 87
e 39 91
e 40 41
e 40 42
e 40 46
e 40 47
e 40 48
e 40 49
e 40 50
e 40 51
e 40 53
e 40 57
e 40 58
e 40 59
e 40 61
e 40 64
e 40 67
e 40 68
e 40 70
e 40 71
e 40 73
e 40 74
e 40 75
e 40 77
e 40 78
e 40 80
e 40 83
e 40 86
e 40 87
e 41 43
e 41 44
e 41 45
e 41 49
e 41 52
e 41 54
e 41 55
e 41 56
e 41 57
e 41 59
e 41 62
e 41 64
e 41 68
e 41 69
e 41 70
e 41 71
e 41 72
e 41 73
e 41 74
e 41 77
e 41 80
e 41 83
e 41 85
e 41 87
e 41 88
e 41 97
e 42 43
e 42 45
e 42 48
e 42 50
e 42 52
e 42 56
e 42 57
e 42 58
e 42 59
e 42 61
e 42 64
e 42 70
e 42 71
e 42 72
e 42 74
e 42 76
e 42 77
e 42 78
e 42 84
e 42 86
e 42 88
e 42 98
e 43 44
e 43 46
e 43 49
e 43 50
e 43 51
e 43 54
e 43 55
e 43 56
e 43 57
e 43 58
e 43 59
e 43 63
e 43 64
e 43 66
e 43 68
e 43 69
e 43 72
e 43 73
e 43 74
e 43 78
e 43 79
e 43 80
e 43 81
e 43 83
e 43 84
e 43 85
e 43 86
e 43 87
e 43 98
e 44 46
e 44 49
e 44 51
e 44 53
e 44 55
e 44 56
e 44 57
e 44 58
e 44 59
e 44 60
e 44 61
e 44 62
e 44 65
e 44 67
e 44 68
e 44 70
e 44 71
e 44 73
e 44 74
e 44 76
e 44 80
e 44 81
e 44 82
e 44 84
e 44 87
e 44 88
e 44 91
e 45 50
e 45 55
e 45 59
e 45 61
e 45 62
e 45 64
e 45 68
e 45 69
e 45 71
e 45 72
e 45 73
e 45 74
e 45 76
e 45 78
e 45 82
e 45 83
e 45 85
e 45 87
e 45 97
e 46 48
e 46 49
e 46 50
e 46 52
e 46 54
e 46 55
e 46 62
e 46 63
e 46 64
e 46 65
e 46 70
e 46 71
e 46 74
e 46 75
e 46 76
e 46 79
e 46 80
e 46 82
e 46 83
e 46 84
e 46 85
e 46 87
e 47 48
e 47 49
e 47 51
e 47 54
e 47 57
e 47 58
e 47 59
e 47 60
e 47 61
e 47 64
e 47 65
e 47 67
e 47 68
e 47 69
e 47 71
e 47 74
e 47 76
e 47 78
e 47 79
e 47 80
e 47 81
e 47 82
e 47 83
e 47 84
e 47 85
e 47 86
e 47 87
e 47 99
e 48 49
e 48 51
e 48 52
e 48 53
e 48 55
e 48 56
e 48 57
e 48 60
e 48 61
e 48 62
e 48 63
e 48 67
e 48 68
e 48 69
e 48 71
e 48 75
e 48 76
e 48 78
e 48 79
e 48 81
e 48 82
e 48 84
e 48 88
e 49 52
e 49 53
e 49 56
e 49 62
e 49 64
e 49 65
e 49 67
e 49 69
e 49 73
e 49 74
e 49 78
e 49 79
e 49 81
e 49 82
e 49 84
e 49 85
e 49 86
e 50 51
e 50 55
e 50 57
e 50 58
e 50 59
e 50 60
e 50 62
e 50 64
e 50 68
e 50 69
e 50 70
e 50 72
e 50 74
e 50 76
e 50 77
e 50 78
e 50 82
e 50 83
e 50 85
e 50 86
e 50 87
e 50 88
e 51 52
e 51 54
e 51 55
e 51 58
e 51 60
e 51 61
e 51 62
e 51 63
e 51 64
e 51 66
e 51 67
e 51 68
e 51 69
e 51 71
e 51 74
e 51 75
e 51 76
e 51 77
e 51 81
e 51 88
e 52 53
e 52 55
e 52 57
e 52 58
e 52 59
e 52 61
e 52 63
e 52 66
e 52 67
e 52 68
e 52 72
e 52 73
e 52 74
e 52 75
e 52 77
e 52 80
e 52 81
e 52 88
e 53 55
e 53 56
e 53 57
e 53 58
e 53 60
e 53 61
e 53 62
e 53 63
e 53 64
e 53 65
e 53 68
e 53 69
e 53 74
e 53 75
e 53 76
e 53 78
e 53 80
e 53 82
e 53 86
e 53 92
e 54 56
e 54 59
e 54 61
e 54 62
e 54 63
e 54 64
e 54 65
e 54 68
e 54 69
e 54 70
e 54 71
e 54 72
e 54 73
e 54 74
e 54 75
e 54 77
e 54 79
e 54 80
e 54 81
e 54 82
e 54 83
e 54 84
e 54 85
e 54 86
e 55 56
e 55 57
e 55 58
e 55 59
e 55 60
e 55 61
e 55 62
e 55 63
e 55 64
e 55 65
e 55 68
e 55 69
e 55 74
e 55 75
e 55 76
e 55 81
e 55 83
e 55 84
e 55 85
e 55 87
e 56 58
e 56 61
e 56 62
e 56 64
e 56 67
e 56 68
e 56 72
e 56 74
e 56 75
e 56 78
e 56 79
e 56 80
e 56 84
e 56 87
e 56 88
e 57 61
e 57 63
e 57 64
e 57 66
e 57 67
e 57 69
e 57 70
e 57 71
e 57 74
e 57 75
e 57 78
e 57 79
e 57 80
e 57 81
e 57 82
e 57 84
e 57 86
e 57 88
e 57 92
e 58 59
e 58 61
e 58 62
e 58 63
e 58 64
e 58 65
e 58 66
e 58 67
e 58 68
e 58 69
e 58 70
e 58 72
e 58 73
e 58 74
e 58 75
e 58 76
e 58 77
e 58 79
e 58 80
e 58 83
e 58 84
e 58 86
e 58 87
e 58 93
e 59 61
e 59 62
e 59 64
e 59 65
e 59 66
e 59 69
e 59 70
e 59 71
e 59 72
e 59 73
e 59 74
e 59 75
e 59 76
e 59 78
e 59 79
e 59 81
e 59 83
e 59 87
e 60 61
e 60 62
e 60 63
e 60 64
e 60 68
e 60 71
e 60 72
e 60 74
e 60 76
e 60 77
e 60 79
e 60 80
e 60 81
e 60 82
e 60 86
e 60 87
e 61 63
e 61 66
e 61 67
e 61 68
e 61 71
e 61 77
e 61 79
e 61 81
e 61 82
e 61 83
e 61 84
e 61 86
e 61 89
e 61 93
e 62 63
e 62 65
e 62 66
e 62 69
e 62 70
e 62 74
e 62 75
e 62 78
e 62 79
e 62 80
e 62 81
e 62 83
e 62 84
e 63 64
e 63 65
e 63 66
e 63 67
e 63 69
e 63 70
e 63 71
e 63 72
e 63 73
e 63 74
e 63 76
e 63 77
e 63 80
e 63 82
e 63 85
e 63 86
e 63 88
e 63 94
e 64 65
e 64 69
e 64 72
e 64 73
e 64 76
e 64 78
e 64 79
e 64 83
e 64 84
e 64 85
e 64 86
e 65 66
e 65 67
e 65 68
e 65 69
e 65 71
e 65 73
e 65 74
e 65 76
e 65 78
e 65 79
e 65 80
e 65 81
e 65 82
e 65 83
e 65 86
e 65 87
e 65 88
e 66 69
e 66 71
e 66 72
e 66 73
e 66 74
e 66 76
e 66 77
e 66 80
e 66 81
e 66 86
e 67 68
e 67 69
e 67 71
e 67 72
e 67 74
e 67 75
e 67 77
e 67 78
e 67 79
e 67 80
e 67 82
e 67 83
e 67 84
e 67 85
e 67 95
e 68 71
e 68 72
e 68 74
e 68 75
e 68 79
e 68 80
e 68 81
e 68 84
e 68 85
e 68 87
e 69 71
e 69 75
e 69 78
e 69 80
e 69 82
e 69 83
e 69 84
e 69 86
e 69 87
e 69 88
e 69 93
e 70 74
e 70 78
e 70 83
e 70 85
e 70 87
e 70 88
e 70 93
e 71 72
e 71 73
e 71 74
e 71 76
e 71 78
e 71 81
e 71 83
e 71 85
e 71 87
e 71 99
e 72 74
e 72 75
e 72 77
e 72 78
e 72 80
e 72 81
e 72 82
e 72 84
e 72 85
e 72 86
e 72 88
e 73 74
e 73 81
e 73 83
e 73 85
e 73 87
e 73 93
e 74 75
e 74 77
e 74 78
e 74 81
e 74 85
e 74 87
e 75 77
e 75 79
e 75 81
e 75 82
e 75 83
e 75 84
e 75 87
e 76 83
e 76 84
e 76 85
e 76 87
e 76 88
e 77 80
e 77 81
e 77 82
e 77 83
e 77 85
e 78 79
e 78 80
e 78 81
e 78 82
e 78 83
e 78 88
e 79 80
e 79 81
e 79 82
e 79 84
e 79 85
e 79 87
e 80 82
e 80 83
e 80 84
e 80 86
e 80 87
e 80 88
e 81 82
e 81 84
e 81 86
e 82 83
e 83 84
e 83 85
e 83 87
e 84 85
e 84 88
e 84 97
e 85 87
e 85 88
e 85 90
e 85 92
e 87 88
e 89 91
e 89 93
e 89 96
e 89 99
e 89 100
e 90 91
e 90 93
e 90 95
e 90 96
e 90 97
e 91 95
e 91 97
e 91 98
e 91 100
e 92 93
e 92 96
e 92 97
e 92 98
e 92 99
e 93 95
e 93 98
e 93 99
e 94 96
e 94 97
e 94 98
e 94 99
e 94 100
e 95 99
e 95 100
e 96 98
e 96 99
e 97 100
e 98 100
e 99 100
